
******************************************************************************
This program contains Ipopt, a library for large-scale nonlinear optimization.
 Ipopt is released as open source code under the Eclipse Public License (EPL).
         For more information visit http://projects.coin-or.org/Ipopt
******************************************************************************

This is Ipopt version 3.12.6, running with linear solver ma57.

Number of nonzeros in equality constraint Jacobian...:    10000
Number of nonzeros in inequality constraint Jacobian.:      198
Number of nonzeros in Lagrangian Hessian.............:     5050

Total number of variables............................:      100
                     variables with only lower bounds:        0
                variables with lower and upper bounds:        0
                     variables with only upper bounds:        0
Total number of equality constraints.................:      100
Total number of inequality constraints...............:       99
        inequality constraints with only lower bounds:       99
   inequality constraints with lower and upper bounds:        0
        inequality constraints with only upper bounds:        0

iter    objective    inf_pr   inf_du lg(mu)  ||d||  lg(rg) alpha_du alpha_pr  ls
   0  0.0000000e+00 4.02e+63 1.00e+00  -1.0 0.00e+00    -  0.00e+00 0.00e+00   0
Reallocating memory for MA57: lfact (106760)
Warning: Cutting back alpha due to evaluation error
Warning: Evaluation error during soft restoration phase step.
Warning: Evaluation error during soft restoration phase step.
Warning: Evaluation error during soft restoration phase step.
   1r 0.0000000e+00 4.02e+63 9.99e+02  55.6 0.00e+00    -  0.00e+00 8.28e-59R  2
Sorry, things failed ?!?!

Number of Iterations....: 1

                                   (scaled)                 (unscaled)
Objective...............:   0.0000000000000000e+00    0.0000000000000000e+00
Dual infeasibility......:   1.0000000000000000e+00    1.0000000000000000e+00
Constraint violation....:   4.0173451092008996e+55    4.0173451092008996e+63
Complementarity.........:   1.0000010000000009e-02    1.0000010000000009e-02
Overall NLP error.......:   4.0173451092008996e+55    4.0173451092008996e+63


Number of objective function evaluations             = 5
Number of objective gradient evaluations             = 2
Number of equality constraint evaluations            = 6
Number of inequality constraint evaluations          = 2
Number of equality constraint Jacobian evaluations   = 2
Number of inequality constraint Jacobian evaluations = 2
Number of Lagrangian Hessian evaluations             = 1
Total CPU secs in IPOPT (w/o function evaluations)   =      0.030
Total CPU secs in NLP function evaluations           =      0.020

EXIT: Restoration Failed!
Note: The following floating-point exceptions are signalling: IEEE_INVALID_FLAG IEEE_OVERFLOW_FLAG IEEE_UNDERFLOW_FLAG IEEE_DENORMAL

************************ CUTEst statistics ************************


 Package used            :  IPOPT
 Problem                 :  VANDERM4  
 # variables             =             100
 # constraints           =             199
 # objective functions   =        0.8000000E+01
 # objective gradients   =        0.3000000E+01
 # objective Hessians    =        0.2000000E+01
 # Hessian-vector prdct  =        0.0000000E+00
 # constraints functions =        0.1000000E+02
 # constraints gradients =        0.4000000E+01
 # constraints Hessians  =        0.2000000E+01
 Exit code               =              -2
 Final f                 =   0.0000000E+00
 Set up time             =            0.06 seconds
 Solve time              =            0.17 seconds


******************************************************************

System Time =       0.0399999991 s.
